7
0, 593, 184, 765, 440, 760, 382
593, 0, 482, 339, 158, 360, 213
184, 482, 0, 725, 323, 728, 274
765, 339, 725, 0, 441, 32, 467
440, 158, 323, 441, 0, 453, 58
760, 360, 728, 32, 453, 0, 475
382, 213, 274, 467, 58, 475, 0
